presolving:
(round 1, fast)       12006 del vars, 12234 del conss, 0 add conss, 306 chg bounds, 78 chg sides, 0 chg coeffs, 0 upgd conss, 0 impls, 12221 clqs
(round 2, fast)       12084 del vars, 12234 del conss, 0 add conss, 306 chg bounds, 78 chg sides, 0 chg coeffs, 0 upgd conss, 0 impls, 12221 clqs
   (0.4s) running MILP presolver
   (0.4s) MILP presolver found nothing
(round 3, exhaustive) 12084 del vars, 12234 del conss, 0 add conss, 306 chg bounds, 78 chg sides, 0 chg coeffs, 12221 upgd conss, 0 impls, 12221 clqs
   (5.9s) probing: 1000/11850 (8.4%) - 0 fixings, 0 aggregations, 530384 implications, 0 bound changes
   (5.9s) probing: 1001/11850 (8.4%) - 0 fixings, 0 aggregations, 530848 implications, 0 bound changes
   (5.9s) probing aborted: 1000/1000 successive useless probings
   (6.1s) symmetry computation started: requiring (bin +, int -, cont +), (fixed: bin -, int +, cont -)
   (6.2s) no symmetry present
presolving (4 rounds: 4 fast, 2 medium, 2 exhaustive):
 12084 deleted vars, 12234 deleted constraints, 0 added constraints, 306 tightened bounds, 0 added holes, 78 changed sides, 0 changed coefficients
 0 implications, 77570 cliques
presolved problem has 11850 variables (11850 bin, 0 int, 0 impl, 0 cont) and 12221 constraints
  12221 constraints of type <setppc>
Presolving Time: 6.04

 time | node  | left  |LP iter|LP it/n|mem/heur|mdpt |vars |cons |rows |cuts |sepa|confs|strbr|  dualbound   | primalbound  |  gap   | compl. 
p 6.4s|     1 |     0 |     0 |     - |  clique|   0 |  11k|  12k|  12k|   0 |  0 |   0 |   0 | 1.993645e+03 | 2.273704e+05 |  Large | unknown
p 6.6s|     1 |     0 |     0 |     - | vbounds|   0 |  11k|  12k|  12k|   0 |  0 |   1 |   0 | 1.993645e+03 | 1.565834e+05 |7754.12%| unknown
p 6.9s|     1 |     0 |    30 |     - | vbounds|   0 |  11k|  12k|  12k|   0 |  0 |   2 |   0 | 1.993645e+03 | 1.544414e+05 |7646.68%| unknown
  9.2s|     1 |     0 |  6264 |     - |   184M |   0 |  11k|  12k|  12k|   0 |  0 |   3 |   0 | 1.480299e+05 | 1.544414e+05 |   4.33%| unknown
 12.5s|     1 |     0 |  6616 |     - |   195M |   0 |  11k|  12k|  12k|   2 |  1 |   3 |   0 | 1.480408e+05 | 1.544414e+05 |   4.32%| unknown
 15.3s|     1 |     0 |  7016 |     - |   202M |   0 |  11k|  12k|  12k|   3 |  2 |   3 |   0 | 1.480535e+05 | 1.544414e+05 |   4.31%| unknown
 19.0s|     1 |     0 |  7754 |     - |   207M |   0 |  11k|  12k|  12k|   5 |  3 |   3 |   0 | 1.480741e+05 | 1.544414e+05 |   4.30%| unknown
 19.6s|     1 |     0 |  7878 |     - |   209M |   0 |  11k|  12k|  12k|   6 |  4 |   3 |   0 | 1.480764e+05 | 1.544414e+05 |   4.30%| unknown
 20.2s|     1 |     0 |  7999 |     - |   210M |   0 |  11k|  12k|  12k|   7 |  5 |   3 |   0 | 1.480812e+05 | 1.544414e+05 |   4.30%| unknown
 21.0s|     1 |     0 |  8455 |     - |   211M |   0 |  11k|  12k|  12k|   9 |  6 |   3 |   0 | 1.480904e+05 | 1.544414e+05 |   4.29%| unknown
 21.8s|     1 |     0 |  8712 |     - |   213M |   0 |  11k|  12k|  12k|  11 |  7 |   3 |   0 | 1.480957e+05 | 1.544414e+05 |   4.28%| unknown
 22.5s|     1 |     0 |  8886 |     - |   215M |   0 |  11k|  12k|  12k|  12 |  8 |   3 |   0 | 1.480985e+05 | 1.544414e+05 |   4.28%| unknown
 23.1s|     1 |     0 |  9006 |     - |   216M |   0 |  11k|  12k|  12k|  13 |  9 |   3 |   0 | 1.481006e+05 | 1.544414e+05 |   4.28%| unknown
 24.0s|     1 |     0 |  9176 |     - |   217M |   0 |  11k|  12k|  12k|  14 | 10 |   3 |   0 | 1.481049e+05 | 1.544414e+05 |   4.28%| unknown
 24.2s|     1 |     0 |  9227 |     - |   219M |   0 |  11k|  12k|  12k|  15 | 11 |   3 |   0 | 1.481056e+05 | 1.544414e+05 |   4.28%| unknown
 time | node  | left  |LP iter|LP it/n|mem/heur|mdpt |vars |cons |rows |cuts |sepa|confs|strbr|  dualbound   | primalbound  |  gap   | compl. 
 24.5s|     1 |     0 |  9394 |     - |   220M |   0 |  11k|  12k|  12k|  16 | 12 |   4 |   0 | 1.481068e+05 | 1.544414e+05 |   4.28%| unknown
 24.9s|     1 |     0 |  9474 |     - |   221M |   0 |  11k|  12k|  12k|  17 | 13 |   4 |   0 | 1.481079e+05 | 1.544414e+05 |   4.28%| unknown
d40.2s|     1 |     0 | 28592 |     - |conflict|   0 |  11k|  12k|  12k|   0 | 13 |   4 |   0 | 1.481079e+05 | 1.499944e+05 |   1.27%| unknown
L41.0s|     1 |     0 | 28592 |     - |    rens|   0 |  11k|  12k|  12k|  17 | 13 |   4 |   0 | 1.481079e+05 | 1.488054e+05 |   0.47%| unknown
 41.3s|     1 |     0 | 28592 |     - |   225M |   0 |  11k|  12k|  12k|  17 | 13 |   4 |   0 | 1.481079e+05 | 1.488054e+05 |   0.47%| unknown
 41.3s|     1 |     0 | 28592 |     - |   225M |   0 |  11k|  12k|6642 |  17 | 13 |   4 |   0 | 1.481079e+05 | 1.488054e+05 |   0.47%| unknown
 41.7s|     1 |     0 | 28773 |     - |   225M |   0 |  11k|6628 |6644 |  19 | 14 |   4 |   0 | 1.481144e+05 | 1.488054e+05 |   0.47%| unknown
 41.8s|     1 |     0 | 28913 |     - |   225M |   0 |  11k|6628 |6646 |  21 | 15 |   4 |   0 | 1.481176e+05 | 1.488054e+05 |   0.46%| unknown
(run 1, node 1) restarting after 7695 global fixings of integer variables

(restart) converted 21 cuts from the global cut pool into linear constraints

presolving:
(round 1, fast)       7695 del vars, 4 del conss, 0 add conss, 0 chg bounds, 0 chg sides, 97 chg coeffs, 0 upgd conss, 0 impls, 12548 clqs
   (42.1s) running MILP presolver
   (42.1s) MILP presolver found nothing
(round 2, exhaustive) 7695 del vars, 5 del conss, 0 add conss, 0 chg bounds, 0 chg sides, 97 chg coeffs, 21 upgd conss, 0 impls, 12548 clqs
presolving (3 rounds: 3 fast, 2 medium, 2 exhaustive):
 7695 deleted vars, 5 deleted constraints, 0 added constraints, 0 tightened bounds, 0 added holes, 0 changed sides, 97 changed coefficients
 0 implications, 12548 cliques
presolved problem has 4155 variables (4155 bin, 0 int, 0 impl, 0 cont) and 4262 constraints
     19 constraints of type <knapsack>
   4243 constraints of type <setppc>
Presolving Time: 6.30
transformed 12/15 original solutions to the transformed problem space

 time | node  | left  |LP iter|LP it/n|mem/heur|mdpt |vars |cons |rows |cuts |sepa|confs|strbr|  dualbound   | primalbound  |  gap   | compl. 
 44.1s|     1 |     0 | 36228 |     - |   227M |   0 |4155 |4262 |4261 |   0 |  0 |   4 |   0 | 1.481176e+05 | 1.488054e+05 |   0.46%| unknown
 45.5s|     1 |     0 | 36307 |     - |   230M |   0 |4155 |4262 |4262 |   1 |  1 |   4 |   0 | 1.481197e+05 | 1.488054e+05 |   0.46%| unknown
 47.0s|     1 |     0 | 36461 |     - |   232M |   0 |4155 |4262 |4263 |   2 |  2 |   4 |   0 | 1.481253e+05 | 1.488054e+05 |   0.46%| unknown
 47.1s|     1 |     0 | 36461 |     - |   232M |   0 |4155 |4262 |4262 |   2 |  2 |   4 |   0 | 1.481253e+05 | 1.488054e+05 |   0.46%| unknown
 48.3s|     1 |     0 | 36692 |     - |   235M |   0 |4155 |4261 |4264 |   4 |  3 |   4 |   0 | 1.481321e+05 | 1.488054e+05 |   0.45%| unknown
 48.5s|     1 |     0 | 36804 |     - |   236M |   0 |4155 |4261 |4265 |   5 |  4 |   4 |   0 | 1.481333e+05 | 1.488054e+05 |   0.45%| unknown
 48.8s|     1 |     0 | 36888 |     - |   236M |   0 |4155 |4261 |4266 |   6 |  5 |   4 |   0 | 1.481351e+05 | 1.488054e+05 |   0.45%| unknown
 49.1s|     1 |     0 | 36936 |     - |   237M |   0 |4155 |4261 |4267 |   7 |  6 |   4 |   0 | 1.481357e+05 | 1.488054e+05 |   0.45%| unknown
 49.4s|     1 |     0 | 37064 |     - |   237M |   0 |4155 |4261 |4268 |   8 |  7 |   4 |   0 | 1.481374e+05 | 1.488054e+05 |   0.45%| unknown
 49.7s|     1 |     0 | 37122 |     - |   238M |   0 |4155 |4261 |4269 |   9 |  8 |   4 |   0 | 1.481379e+05 | 1.488054e+05 |   0.45%| unknown
 50.0s|     1 |     0 | 37289 |     - |   238M |   0 |4155 |4261 |4270 |  10 |  9 |   4 |   0 | 1.481395e+05 | 1.488054e+05 |   0.45%| unknown
 50.2s|     1 |     0 | 37343 |     - |   239M |   0 |4155 |4261 |4271 |  11 | 10 |   4 |   0 | 1.481404e+05 | 1.488054e+05 |   0.45%| unknown
 50.4s|     1 |     0 | 37400 |     - |   239M |   0 |4155 |4261 |4272 |  12 | 11 |   4 |   0 | 1.481413e+05 | 1.488054e+05 |   0.45%| unknown
 58.5s|     1 |     2 | 40853 |     - |   239M |   0 |4155 |4270 |4272 |  12 | 11 |  13 |  23 | 1.481708e+05 | 1.488054e+05 |   0.43%| unknown
*70.5s|     4 |     3 | 43739 |6371.8 |strongbr|   3 |4155 |4270 |4266 |  12 |  2 |  13 |  72 | 1.482427e+05 | 1.486124e+05 |   0.25%| unknown
 time | node  | left  |LP iter|LP it/n|mem/heur|mdpt |vars |cons |rows |cuts |sepa|confs|strbr|  dualbound   | primalbound  |  gap   | compl. 
*74.2s|     7 |     0 | 50125 |4553.3 |strongbr|   3 |4155 |2242 |4266 |  12 |  4 |  50 | 106 | 1.484111e+05 | 1.485374e+05 |   0.09%|  58.11%
*74.5s|     7 |     0 | 50125 |4553.3 |strongbr|   3 |4155 |2242 |4266 |  12 |  4 |  50 | 112 | 1.484111e+05 | 1.485264e+05 |   0.08%|  58.11%

SCIP Status        : problem is solved [optimal solution found]
Solving Time (sec) : 74.64
Solving Nodes      : 7 (total of 8 nodes in 2 runs)
Primal Bound       : +1.48526351511654e+05 (19 solutions)
Dual Bound         : +1.48526351511654e+05
Gap                : 0.00 %
Solve Status: optimal
Solve Time: 74.66 seconds
Objective Value: 148526.35
